c Standarized MaxSat Instance
c{
c "sha1sum": "ac8b39f1b3fb9b6009c0333c98b9b5aba29a7f8b",
c "nvars": 60,
c "ncls": 840,
c "nhards": 0,
c "nhard_len_stats":
c    { "min": 0, "max": 0, "ave": 0.00,
c      "stddev": 0.00 },
c "nsofts": 840,
c "nsoft_len_stats":
c    { "min": 2, "max": 2, "ave": 2.00,
c      "stddev": 0.00 },
c "nsoft_wts": 10,
c "soft_wt_stats":
c    { "min": 1, "max": 10, "ave": 5.61,
c      "stddev": 2.87 }
c}
c------------------------------------------------------------
c Generated after 1 tries
c Graph with 60 nodes and 420 edges, Max edges:1770
p wcnf 60 840 4713
9 1 2 0
9 -1 -2 0
4 1 7 0
4 -1 -7 0
8 1 10 0
8 -1 -10 0
8 1 12 0
8 -1 -12 0
10 1 19 0
10 -1 -19 0
2 1 23 0
2 -1 -23 0
4 1 25 0
4 -1 -25 0
8 1 30 0
8 -1 -30 0
3 1 37 0
3 -1 -37 0
6 1 40 0
6 -1 -40 0
5 1 41 0
5 -1 -41 0
7 1 42 0
7 -1 -42 0
4 1 45 0
4 -1 -45 0
6 1 47 0
6 -1 -47 0
10 2 6 0
10 -2 -6 0
10 2 21 0
10 -2 -21 0
7 2 25 0
7 -2 -25 0
8 2 34 0
8 -2 -34 0
2 2 37 0
2 -2 -37 0
7 2 40 0
7 -2 -40 0
1 2 60 0
1 -2 -60 0
3 3 7 0
3 -3 -7 0
2 3 16 0
2 -3 -16 0
9 3 20 0
9 -3 -20 0
2 3 24 0
2 -3 -24 0
5 3 26 0
5 -3 -26 0
2 3 30 0
2 -3 -30 0
2 3 33 0
2 -3 -33 0
10 3 35 0
10 -3 -35 0
3 3 40 0
3 -3 -40 0
6 3 46 0
6 -3 -46 0
9 3 48 0
9 -3 -48 0
7 3 49 0
7 -3 -49 0
3 3 51 0
3 -3 -51 0
7 3 53 0
7 -3 -53 0
6 3 60 0
6 -3 -60 0
5 4 6 0
5 -4 -6 0
10 4 9 0
10 -4 -9 0
3 4 11 0
3 -4 -11 0
8 4 19 0
8 -4 -19 0
6 4 26 0
6 -4 -26 0
8 4 29 0
8 -4 -29 0
5 4 32 0
5 -4 -32 0
9 4 34 0
9 -4 -34 0
3 4 37 0
3 -4 -37 0
4 4 43 0
4 -4 -43 0
9 4 46 0
9 -4 -46 0
10 4 47 0
10 -4 -47 0
1 4 51 0
1 -4 -51 0
10 5 7 0
10 -5 -7 0
6 5 18 0
6 -5 -18 0
1 5 21 0
1 -5 -21 0
2 5 24 0
2 -5 -24 0
7 5 27 0
7 -5 -27 0
9 5 33 0
9 -5 -33 0
4 5 46 0
4 -5 -46 0
1 5 48 0
1 -5 -48 0
1 5 52 0
1 -5 -52 0
5 5 60 0
5 -5 -60 0
1 6 11 0
1 -6 -11 0
3 6 12 0
3 -6 -12 0
10 6 17 0
10 -6 -17 0
10 6 24 0
10 -6 -24 0
9 6 39 0
9 -6 -39 0
3 6 44 0
3 -6 -44 0
6 6 45 0
6 -6 -45 0
4 6 46 0
4 -6 -46 0
8 6 47 0
8 -6 -47 0
6 6 49 0
6 -6 -49 0
7 6 55 0
7 -6 -55 0
6 6 58 0
6 -6 -58 0
1 6 59 0
1 -6 -59 0
5 7 8 0
5 -7 -8 0
10 7 16 0
10 -7 -16 0
10 7 17 0
10 -7 -17 0
8 7 19 0
8 -7 -19 0
3 7 26 0
3 -7 -26 0
8 7 30 0
8 -7 -30 0
7 7 37 0
7 -7 -37 0
4 7 39 0
4 -7 -39 0
7 7 43 0
7 -7 -43 0
2 7 46 0
2 -7 -46 0
5 7 59 0
5 -7 -59 0
9 8 11 0
9 -8 -11 0
9 8 13 0
9 -8 -13 0
4 8 14 0
4 -8 -14 0
3 8 15 0
3 -8 -15 0
9 8 17 0
9 -8 -17 0
4 8 30 0
4 -8 -30 0
7 8 35 0
7 -8 -35 0
10 8 39 0
10 -8 -39 0
6 8 40 0
6 -8 -40 0
7 8 47 0
7 -8 -47 0
9 8 48 0
9 -8 -48 0
5 8 49 0
5 -8 -49 0
10 8 50 0
10 -8 -50 0
4 8 55 0
4 -8 -55 0
9 8 60 0
9 -8 -60 0
7 9 11 0
7 -9 -11 0
10 9 12 0
10 -9 -12 0
5 9 15 0
5 -9 -15 0
3 9 17 0
3 -9 -17 0
10 9 23 0
10 -9 -23 0
10 9 26 0
10 -9 -26 0
2 9 28 0
2 -9 -28 0
9 9 30 0
9 -9 -30 0
7 9 39 0
7 -9 -39 0
5 9 42 0
5 -9 -42 0
7 9 49 0
7 -9 -49 0
3 9 50 0
3 -9 -50 0
8 9 53 0
8 -9 -53 0
4 9 56 0
4 -9 -56 0
5 9 58 0
5 -9 -58 0
3 9 59 0
3 -9 -59 0
2 9 60 0
2 -9 -60 0
3 10 25 0
3 -10 -25 0
6 10 33 0
6 -10 -33 0
5 10 36 0
5 -10 -36 0
2 10 41 0
2 -10 -41 0
10 10 49 0
10 -10 -49 0
2 10 56 0
2 -10 -56 0
2 10 57 0
2 -10 -57 0
5 10 59 0
5 -10 -59 0
8 10 60 0
8 -10 -60 0
10 11 15 0
10 -11 -15 0
10 11 16 0
10 -11 -16 0
7 11 18 0
7 -11 -18 0
4 11 21 0
4 -11 -21 0
8 11 41 0
8 -11 -41 0
4 11 42 0
4 -11 -42 0
3 11 46 0
3 -11 -46 0
3 11 49 0
3 -11 -49 0
6 11 50 0
6 -11 -50 0
3 11 55 0
3 -11 -55 0
2 12 15 0
2 -12 -15 0
8 12 16 0
8 -12 -16 0
2 12 20 0
2 -12 -20 0
8 12 29 0
8 -12 -29 0
2 12 32 0
2 -12 -32 0
8 12 33 0
8 -12 -33 0
1 12 35 0
1 -12 -35 0
10 12 43 0
10 -12 -43 0
1 12 51 0
1 -12 -51 0
6 12 53 0
6 -12 -53 0
2 13 15 0
2 -13 -15 0
3 13 19 0
3 -13 -19 0
8 13 22 0
8 -13 -22 0
8 13 36 0
8 -13 -36 0
7 13 37 0
7 -13 -37 0
10 13 40 0
10 -13 -40 0
7 13 45 0
7 -13 -45 0
8 13 50 0
8 -13 -50 0
1 13 53 0
1 -13 -53 0
2 13 59 0
2 -13 -59 0
6 14 17 0
6 -14 -17 0
1 14 18 0
1 -14 -18 0
1 14 22 0
1 -14 -22 0
3 14 24 0
3 -14 -24 0
5 14 25 0
5 -14 -25 0
9 14 27 0
9 -14 -27 0
6 14 30 0
6 -14 -30 0
8 14 33 0
8 -14 -33 0
1 14 35 0
1 -14 -35 0
2 14 42 0
2 -14 -42 0
10 14 44 0
10 -14 -44 0
3 14 50 0
3 -14 -50 0
9 14 52 0
9 -14 -52 0
2 14 60 0
2 -14 -60 0
10 15 17 0
10 -15 -17 0
1 15 19 0
1 -15 -19 0
9 15 21 0
9 -15 -21 0
1 15 23 0
1 -15 -23 0
1 15 28 0
1 -15 -28 0
10 15 35 0
10 -15 -35 0
6 15 37 0
6 -15 -37 0
2 15 44 0
2 -15 -44 0
2 15 52 0
2 -15 -52 0
4 15 55 0
4 -15 -55 0
10 15 57 0
10 -15 -57 0
9 15 58 0
9 -15 -58 0
4 15 59 0
4 -15 -59 0
6 15 60 0
6 -15 -60 0
6 16 17 0
6 -16 -17 0
5 16 33 0
5 -16 -33 0
7 16 35 0
7 -16 -35 0
1 16 45 0
1 -16 -45 0
6 16 46 0
6 -16 -46 0
8 16 58 0
8 -16 -58 0
4 17 24 0
4 -17 -24 0
10 17 28 0
10 -17 -28 0
6 17 33 0
6 -17 -33 0
9 17 34 0
9 -17 -34 0
8 17 36 0
8 -17 -36 0
7 17 42 0
7 -17 -42 0
1 17 44 0
1 -17 -44 0
8 17 47 0
8 -17 -47 0
9 17 48 0
9 -17 -48 0
10 17 49 0
10 -17 -49 0
9 17 51 0
9 -17 -51 0
9 17 60 0
9 -17 -60 0
10 18 24 0
10 -18 -24 0
8 18 27 0
8 -18 -27 0
10 18 40 0
10 -18 -40 0
10 18 47 0
10 -18 -47 0
7 18 54 0
7 -18 -54 0
5 18 55 0
5 -18 -55 0
2 18 60 0
2 -18 -60 0
9 19 21 0
9 -19 -21 0
9 19 23 0
9 -19 -23 0
1 19 26 0
1 -19 -26 0
7 19 27 0
7 -19 -27 0
3 19 30 0
3 -19 -30 0
7 19 34 0
7 -19 -34 0
3 19 37 0
3 -19 -37 0
8 19 46 0
8 -19 -46 0
4 19 54 0
4 -19 -54 0
4 19 56 0
4 -19 -56 0
3 19 57 0
3 -19 -57 0
1 20 21 0
1 -20 -21 0
7 20 26 0
7 -20 -26 0
3 20 27 0
3 -20 -27 0
7 20 30 0
7 -20 -30 0
6 20 39 0
6 -20 -39 0
10 20 43 0
10 -20 -43 0
3 20 46 0
3 -20 -46 0
6 20 49 0
6 -20 -49 0
8 20 52 0
8 -20 -52 0
2 20 54 0
2 -20 -54 0
5 20 60 0
5 -20 -60 0
6 21 22 0
6 -21 -22 0
10 21 24 0
10 -21 -24 0
5 21 27 0
5 -21 -27 0
4 21 29 0
4 -21 -29 0
9 21 33 0
9 -21 -33 0
5 21 35 0
5 -21 -35 0
1 21 38 0
1 -21 -38 0
4 21 40 0
4 -21 -40 0
6 21 41 0
6 -21 -41 0
9 21 43 0
9 -21 -43 0
3 21 46 0
3 -21 -46 0
7 21 49 0
7 -21 -49 0
5 21 51 0
5 -21 -51 0
5 21 59 0
5 -21 -59 0
4 22 25 0
4 -22 -25 0
8 22 26 0
8 -22 -26 0
2 22 32 0
2 -22 -32 0
7 22 38 0
7 -22 -38 0
1 22 39 0
1 -22 -39 0
5 22 41 0
5 -22 -41 0
7 22 43 0
7 -22 -43 0
7 22 47 0
7 -22 -47 0
7 22 55 0
7 -22 -55 0
4 23 24 0
4 -23 -24 0
2 23 28 0
2 -23 -28 0
7 23 29 0
7 -23 -29 0
7 23 40 0
7 -23 -40 0
8 23 42 0
8 -23 -42 0
4 23 51 0
4 -23 -51 0
8 23 52 0
8 -23 -52 0
3 23 56 0
3 -23 -56 0
10 24 28 0
10 -24 -28 0
7 24 33 0
7 -24 -33 0
7 24 35 0
7 -24 -35 0
3 24 39 0
3 -24 -39 0
6 24 41 0
6 -24 -41 0
1 24 42 0
1 -24 -42 0
3 24 45 0
3 -24 -45 0
9 24 49 0
9 -24 -49 0
7 24 56 0
7 -24 -56 0
1 24 57 0
1 -24 -57 0
2 25 36 0
2 -25 -36 0
4 25 37 0
4 -25 -37 0
6 25 45 0
6 -25 -45 0
6 25 49 0
6 -25 -49 0
7 25 51 0
7 -25 -51 0
3 25 56 0
3 -25 -56 0
8 25 59 0
8 -25 -59 0
3 25 60 0
3 -25 -60 0
4 26 29 0
4 -26 -29 0
2 26 35 0
2 -26 -35 0
10 26 37 0
10 -26 -37 0
1 26 39 0
1 -26 -39 0
9 26 43 0
9 -26 -43 0
4 26 46 0
4 -26 -46 0
2 26 47 0
2 -26 -47 0
5 26 50 0
5 -26 -50 0
10 27 29 0
10 -27 -29 0
10 27 38 0
10 -27 -38 0
8 27 40 0
8 -27 -40 0
7 27 44 0
7 -27 -44 0
2 27 50 0
2 -27 -50 0
7 27 51 0
7 -27 -51 0
4 27 54 0
4 -27 -54 0
8 27 56 0
8 -27 -56 0
10 27 57 0
10 -27 -57 0
10 27 60 0
10 -27 -60 0
9 28 31 0
9 -28 -31 0
3 28 32 0
3 -28 -32 0
8 28 41 0
8 -28 -41 0
6 28 45 0
6 -28 -45 0
3 28 49 0
3 -28 -49 0
10 28 51 0
10 -28 -51 0
10 28 60 0
10 -28 -60 0
9 29 47 0
9 -29 -47 0
5 29 51 0
5 -29 -51 0
6 29 55 0
6 -29 -55 0
2 29 56 0
2 -29 -56 0
3 29 58 0
3 -29 -58 0
9 29 60 0
9 -29 -60 0
5 30 33 0
5 -30 -33 0
5 30 37 0
5 -30 -37 0
9 30 40 0
9 -30 -40 0
5 30 41 0
5 -30 -41 0
3 30 43 0
3 -30 -43 0
2 30 50 0
2 -30 -50 0
7 30 54 0
7 -30 -54 0
8 32 36 0
8 -32 -36 0
2 32 37 0
2 -32 -37 0
7 32 39 0
7 -32 -39 0
5 32 43 0
5 -32 -43 0
9 32 44 0
9 -32 -44 0
8 32 46 0
8 -32 -46 0
2 32 49 0
2 -32 -49 0
3 32 53 0
3 -32 -53 0
5 32 59 0
5 -32 -59 0
2 33 38 0
2 -33 -38 0
2 33 39 0
2 -33 -39 0
4 33 44 0
4 -33 -44 0
4 33 45 0
4 -33 -45 0
10 33 49 0
10 -33 -49 0
10 34 38 0
10 -34 -38 0
7 34 43 0
7 -34 -43 0
9 34 58 0
9 -34 -58 0
9 34 59 0
9 -34 -59 0
5 35 46 0
5 -35 -46 0
4 35 51 0
4 -35 -51 0
4 35 56 0
4 -35 -56 0
7 35 60 0
7 -35 -60 0
7 36 40 0
7 -36 -40 0
3 36 44 0
3 -36 -44 0
2 36 45 0
2 -36 -45 0
1 36 47 0
1 -36 -47 0
2 36 50 0
2 -36 -50 0
7 36 51 0
7 -36 -51 0
4 36 56 0
4 -36 -56 0
3 36 59 0
3 -36 -59 0
4 37 45 0
4 -37 -45 0
1 37 51 0
1 -37 -51 0
5 37 58 0
5 -37 -58 0
10 37 60 0
10 -37 -60 0
6 38 39 0
6 -38 -39 0
3 38 50 0
3 -38 -50 0
7 38 53 0
7 -38 -53 0
8 38 54 0
8 -38 -54 0
5 38 55 0
5 -38 -55 0
2 38 58 0
2 -38 -58 0
9 38 60 0
9 -38 -60 0
7 39 50 0
7 -39 -50 0
6 39 52 0
6 -39 -52 0
3 39 58 0
3 -39 -58 0
6 40 41 0
6 -40 -41 0
5 40 43 0
5 -40 -43 0
9 40 48 0
9 -40 -48 0
4 40 50 0
4 -40 -50 0
3 40 53 0
3 -40 -53 0
4 40 57 0
4 -40 -57 0
8 40 59 0
8 -40 -59 0
7 40 60 0
7 -40 -60 0
10 41 43 0
10 -41 -43 0
4 41 44 0
4 -41 -44 0
9 41 45 0
9 -41 -45 0
2 41 46 0
2 -41 -46 0
5 41 52 0
5 -41 -52 0
1 41 58 0
1 -41 -58 0
8 42 43 0
8 -42 -43 0
8 42 44 0
8 -42 -44 0
3 42 45 0
3 -42 -45 0
2 42 48 0
2 -42 -48 0
9 42 50 0
9 -42 -50 0
8 42 51 0
8 -42 -51 0
1 42 59 0
1 -42 -59 0
5 43 44 0
5 -43 -44 0
10 43 48 0
10 -43 -48 0
8 43 51 0
8 -43 -51 0
3 43 54 0
3 -43 -54 0
5 43 59 0
5 -43 -59 0
9 44 50 0
9 -44 -50 0
1 44 52 0
1 -44 -52 0
1 44 56 0
1 -44 -56 0
4 44 60 0
4 -44 -60 0
4 45 51 0
4 -45 -51 0
7 45 52 0
7 -45 -52 0
9 46 55 0
9 -46 -55 0
2 47 48 0
2 -47 -48 0
1 47 54 0
1 -47 -54 0
1 47 60 0
1 -47 -60 0
5 48 51 0
5 -48 -51 0
8 48 53 0
8 -48 -53 0
7 48 54 0
7 -48 -54 0
5 48 55 0
5 -48 -55 0
2 48 57 0
2 -48 -57 0
6 49 51 0
6 -49 -51 0
6 49 55 0
6 -49 -55 0
6 49 56 0
6 -49 -56 0
6 50 51 0
6 -50 -51 0
4 51 54 0
4 -51 -54 0
4 51 59 0
4 -51 -59 0
9 52 58 0
9 -52 -58 0
5 52 60 0
5 -52 -60 0
2 53 55 0
2 -53 -55 0
7 53 56 0
7 -53 -56 0
6 53 59 0
6 -53 -59 0
7 54 57 0
7 -54 -57 0
6 55 56 0
6 -55 -56 0
3 55 57 0
3 -55 -57 0
9 55 58 0
9 -55 -58 0
1 56 57 0
1 -56 -57 0
1 56 59 0
1 -56 -59 0
10 57 58 0
10 -57 -58 0
2 58 59 0
2 -58 -59 0
